c User generated cnf file
p cnf 7 34
7 4 -2 0 
1 2 -7 0 
2 -5 6 0 
4 7 -6 0 
2 -7 7 0 
5 -5 3 0 
1 6 -7 0 
3 4 -7 0 
5 6 -7 0 
6 1 -7 0 
4 -5 5 0 
4 6 -1 0 
1 -7 5 0 
4 4 -1 0 
2 7 -6 0 
5 -6 1 0 
6 6 -7 0 
4 3 -5 0 
3 7 -3 0 
4 5 -1 0 
1 -2 4 0 
7 1 -4 0 
5 6 -6 0 
7 -2 5 0 
1 -5 3 0 
5 4 -7 0 
7 -2 4 0 
5 -4 5 0 
4 3 -3 0 
3 -3 5 0 
4 -2 2 0 
3 -7 5 0 
7 5 -2 0 
4 3 -4 0 
